2523446
84,8,148,213,115,65,178,139,10,45,163,19,191,82,158,61,208,59,110,74,229,162,132,206,201,97,51,32,7,26,80,137,3,111,60,79,136,11,23,17,30,126,147,72,127,165,167,159,134,123,124,85,198,29,64,113,160,168,119,152,5,227,44,107,81,28,108,87,102,37,75,184,21,153,4,217,88,230,104,76,221,174,36,135,140,157,63,71,67,118,210,192,6,38,203,188,121,180,66,99,190,219,128,106,222,41,141,202,24,175,53,18,56,216,92,100,54,105,122,143,114,209,13,16,83,49,204,199,95,33,171,186,150,90,228,129,170,142,109,189,73,223,164,2,195,144,161,151,78,40,35,183,55,101,193,120,52,70,57,14,200,39,42,48,15,220,154,176,145,156,172,212,173,31,69,207,138,116,182,149,194,218,86,214,125,77,103,187,12,146,68,211,47,225,94,9,20,177,1,117,185,197,181,58,98,43,215,50,169,27,22,130,133,112,155,62,34,91,196,179,166,93,131,224,205,46,89,96,25,226